1 3 100 27837.70
1 3 200 27711.45
1 3 300 27662.28
2 3 100 33194.47
2 3 200 33361.51
2 3 300 33254.37
3 3 100 33434.44
3 3 200 33936.96
3 3 300 33494.17
4 3 100 33484.42
4 3 200 33594.55
4 3 300 33588.56
5 3 100 31708.09
5 3 200 32357.21
5 3 300 32318.00
